NAME : random_11
COMMENT : 60 random nodes
TYPE : TSP
DIMENSION : 60
EDGE_WEIGHT_TYPE : EUC_2D
NODE_COORD_SECTION
1 531 501
2 811 85
3 994 907
4 577 788
5 57 192
6 485 394
7 782 762
8 39 603
9 518 270
10 336 293
11 256 133
12 118 757
13 846 470
14 282 312
15 130 391
16 30 444
17 566 975
18 344 399
19 212 743
20 457 814
21 234 702
22 554 917
23 116 596
24 143 446
25 344 216
26 96 761
27 713 607
28 447 761
29 722 283
30 389 347
31 412 525
32 448 955
33 797 613
34 507 74
35 800 587
36 936 737
37 914 856
38 507 110
39 88 192
40 814 997
41 168 314
42 104 819
43 341 316
44 933 250
45 401 728
46 636 46
47 610 162
48 943 168
49 1 741
50 610 471
51 214 317
52 578 180
53 782 933
54 256 844
55 289 444
56 580 471
57 983 670
58 144 897
59 594 563
60 915 970
EOF